time,S_Mises
0,0
0.001,0.552565
0.002,1.10509
0.003,1.60106
0.004,1.87764
0.005,1.98332
