time,S_Mises,S_Pressure
0,0.0,-0.0
10,1.01031160354614,0.370588034391403
20,1.01031160354614,0.370588034391403
30,1.01031160354614,0.370588034391403
